n = 70;
capacity = 100;
size = [80, 80, 78, 78, 78, 77, 76, 76, 74, 74, 74, 73, 73, 72, 72, 72, 71, 70, 69, 69, 66, 65, 65, 63, 63, 63, 62, 60, 60, 59, 58, 58, 56, 56, 55, 55, 52, 52, 48, 44, 44, 43, 43, 43, 42, 42, 41, 41, 40, 38, 37, 37, 36, 35, 32, 32, 30, 29, 28, 27, 27, 25, 25, 25, 24, 24, 24, 21, 21, 20];
